\ Equation counts
\     Total        E        G        L        N        X        C        B
\         4        0        2        2        0        0        0        0
\ 
\ Variable counts
\                  x        b        i      s1s      s2s       sc       si
\     Total     cont   binary  integer     sos1     sos2    scont     sint
\        31        1        0       30        0        0        0        0
\ 
\ Nonzero counts
\     Total    const       NL      DLL
\       122       92       30        0
\ 
Minimize
 obj: 0 i1 + 0 i2 + 0 i3 + 0 i4 + 0 i5 + 0 i6 + 0 i7 + 0 i8 + 0 i9 + 0 i10 + 0 i11 + 0 i12 + 0 i13 + 0 i14 
  + 0 i15 + 0 i16 + 0 i17 + 0 i18 + 0 i19 + 0 i20 + 0 i21 + 0 i22 + 0 i23 + 0 i24 + 0 i25 + 0 i26 + 0 i27 
  + 0 i28 + 0 i29 + 0 i30 + objvar

Subject To
 e1: - objvar + [ 5.58391e-3 i1^2 + 9.01964e-3 i1 * i2 + 8.60972e-3 i1 * i3 + 2.48004e-3 i1 * i4 + 1.821292e-3 i1 * i5 
  + 5.61078e-3 i1 * i6 + 5.1287e-3 i1 * i7 + 6.91196e-4 i1 * i8 + 8.05982e-4 i1 * i9 + 5.31452e-3 i1 * i10 
  + 5.56768e-3 i1 * i11 + 7.45224e-3 i1 * i12 + 4.78224e-3 i1 * i13 + 6.10824e-3 i1 * i14 + 5.77634e-3 i1 * i15 
  + 6.13326e-3 i1 * i16 + 1.432596e-2 i1 * i17 + 7.501e-3 i1 * i18 + 7.16212e-3 i1 * i19 + 5.12922e-3 i1 * i20 
  + 8.7283e-3 i1 * i21 + 2.45846e-3 i1 * i22 + 7.1572e-3 i1 * i23 + 5.43966e-3 i1 * i24 + 7.08258e-3 i1 * i25 
  + 2.43422e-3 i1 * i26 + 7.29094e-3 i1 * i27 + 3.86642e-3 i1 * i28 + 6.1908e-3 i1 * i29 + 3.66754e-3 i1 * i30 
  + 1.03737e-2 i2^2 + 1.583972e-2 i2 * i3 + 3.94608e-3 i2 * i4 + 1.773554e-3 i2 * i5 + 8.61376e-3 i2 * i6 
  + 6.04454e-3 i2 * i7 + 3.12866e-3 i2 * i8 + 1.84686e-3 i2 * i9 + 9.24638e-3 i2 * i10 + 1.131902e-2 i2 * i11 
  + 1.253232e-2 i2 * i12 + 6.75858e-3 i2 * i13 + 8.04604e-3 i2 * i14 + 8.69872e-3 i2 * i15 + 9.4047e-3 i2 * i16 
  + 2.51538e-2 i2 * i17 + 1.321532e-2 i2 * i18 + 1.127964e-2 i2 * i19 + 9.6635e-3 i2 * i20 + 1.60783e-2 i2 * i21 
  + 2.71e-3 i2 * i22 + 1.486022e-2 i2 * i23 + 1.091018e-2 i2 * i24 + 1.009426e-2 i2 * i25 + 7.54144e-3 i2 * i26 
  + 1.408844e-2 i2 * i27 + 5.44162e-3 i2 * i28 + 1.096178e-2 i2 * i29 + 5.74964e-3 i2 * i30 + 2.21075e-2 i3^2 
  + 2.99428e-3 i3 * i4 + 1.239314e-3 i3 * i5 + 1.256412e-2 i3 * i6 + 8.99714e-3 i3 * i7 + 4.44448e-3 i3 * i8 
  + 6.16612e-3 i3 * i9 + 1.46019e-2 i3 * i10 + 1.249836e-2 i3 * i11 + 2.64968e-2 i3 * i12 + 1.266506e-2 i3 * i13 
  + 1.358566e-2 i3 * i14 + 1.419766e-2 i3 * i15 + 1.033796e-2 i3 * i16 + 4.0104e-2 i3 * i17 + 1.504214e-2 i3 * i18 
  + 2.10518e-2 i3 * i19 + 1.69342e-2 i3 * i20 + 2.0394e-2 i3 * i21 + 6.361e-3 i3 * i22 + 1.73249e-2 i3 * i23 
  + 1.157254e-2 i3 * i24 + 1.601196e-2 i3 * i25 + 1.305808e-2 i3 * i26 + 1.8918e-2 i3 * i27 + 1.00768e-2 i3 * i28 
  + 1.415258e-2 i3 * i29 + 8.90208e-3 i3 * i30 + 3.99551e-3 i4^2 + 3.65082e-3 i4 * i5 + 3.1533e-3 i4 * i6 
  + 1.664882e-3 i4 * i7 + 4.87746e-4 i4 * i8 + 7.4873e-4 i4 * i9 + 2.79536e-3 i4 * i10 + 9.48078e-4 i4 * i11 
  + 2.18644e-3 i4 * i12 + 1.471884e-3 i4 * i13 + 1.764448e-3 i4 * i14 + 1.707856e-3 i4 * i15 + 4.15534e-3 i4 * i16 
  + 5.52118e-3 i4 * i17 + 2.98928e-3 i4 * i18 + 4.46818e-4 i4 * i19 + 4.2709e-3 i4 * i20 + 4.37068e-3 i4 * i21 
  + 1.584414e-3 i4 * i22 + 2.8495e-3 i4 * i23 + 5.50266e-3 i4 * i24 + 1.9381e-3 i4 * i25 - 7.79792e-4 i4 * i26 
  + 3.83714e-3 i4 * i27 + 1.70793e-3 i4 * i28 + 2.20852e-3 i4 * i29 + 1.897386e-3 i4 * i30 + 2.67064e-3 i5^2 
  + 2.26608e-3 i5 * i6 + 1.391572e-3 i5 * i7 + 1.434726e-3 i5 * i8 + 7.18962e-4 i5 * i9 + 1.17417e-3 i5 * i10 
  + 1.240914e-3 i5 * i11 + 5.87866e-4 i5 * i12 + 2.0154e-3 i5 * i13 + 1.26883e-3 i5 * i14 + 6.45164e-4 i5 * i15 
  + 1.425196e-4 i5 * i16 + 1.199014e-3 i5 * i17 + 1.896292e-3 i5 * i18 - 2.89412e-4 i5 * i19 + 1.457998e-3 i5 * i20 
  + 1.99702e-3 i5 * i21 + 1.266598e-3 i5 * i22 + 7.64624e-4 i5 * i23 + 1.961312e-3 i5 * i24 + 1.748826e-3 i5 * i25 
  - 1.22625e-3 i5 * i26 + 7.53266e-4 i5 * i27 + 6.3941e-4 i5 * i28 + 1.644068e-3 i5 * i29 + 1.587886e-3 i5 * i30 
  + 5.16451e-3 i6^2 + 4.54154e-3 i6 * i7 + 1.157686e-3 i6 * i8 + 3.2018e-3 i6 * i9 + 7.27798e-3 i6 * i10 
  + 6.4553e-3 i6 * i11 + 7.91618e-3 i6 * i12 + 6.87526e-3 i6 * i13 + 6.38032e-3 i6 * i14 + 4.25538e-3 i6 * i15 
  + 5.83332e-3 i6 * i16 + 1.491304e-2 i6 * i17 + 8.76772e-3 i6 * i18 + 8.14434e-3 i6 * i19 + 5.49208e-3 i6 * i20 
  + 1.03848e-2 i6 * i21 + 1.352278e-3 i6 * i22 + 6.3097e-3 i6 * i23 + 5.2012e-3 i6 * i24 + 8.08494e-3 i6 * i25 
  + 5.95234e-3 i6 * i26 + 9.60786e-3 i6 * i27 + 3.5648e-3 i6 * i28 + 7.30486e-3 i6 * i29 + 3.6145e-3 i6 * i30 
  + 4.21051e-3 i7^2 + 2.7426e-3 i7 * i8 + 2.24138e-3 i7 * i9 + 5.58948e-3 i7 * i10 + 4.89378e-3 i7 * i11 
  + 7.3565e-3 i7 * i12 + 5.0794e-3 i7 * i13 + 3.63244e-3 i7 * i14 + 6.34576e-3 i7 * i15 + 1.588982e-3 i7 * i16 
  + 8.77926e-3 i7 * i17 + 7.10862e-3 i7 * i18 + 6.75396e-3 i7 * i19 + 6.21206e-3 i7 * i20 + 7.46652e-3 i7 * i21 
  + 1.927036e-3 i7 * i22 + 4.10122e-3 i7 * i23 + 3.44774e-3 i7 * i24 + 5.94546e-3 i7 * i25 + 4.61784e-3 i7 * i26 
  + 5.30234e-3 i7 * i27 + 3.20122e-3 i7 * i28 + 4.74356e-3 i7 * i29 + 3.41222e-3 i7 * i30 + 3.68008e-3 i8^2 
  + 1.05347e-3 i8 * i9 + 1.879822e-3 i8 * i10 + 2.90244e-3 i8 * i11 + 3.53818e-3 i8 * i12 + 3.5513e-3 i8 * i13 
  + 2.94406e-3 i8 * i14 + 3.89942e-3 i8 * i15 + 2.86866e-3 i8 * i16 + 9.20126e-4 i8 * i17 + 2.74282e-3 i8 * i18 
  + 2.7675e-3 i8 * i19 + 4.64592e-3 i8 * i20 + 1.093444e-3 i8 * i21 + 9.48594e-4 i8 * i22 + 2.75316e-3 i8 * i23 
  + 1.626794e-3 i8 * i24 + 2.09498e-3 i8 * i25 + 3.1962e-3 i8 * i26 + 1.767658e-3 i8 * i27 + 1.09948e-3 i8 * i28 
  + 2.92004e-3 i8 * i29 + 2.15496e-3 i8 * i30 + 3.72788e-3 i9^2 + 3.29222e-3 i9 * i10 + 2.39978e-3 i9 * i11 
  + 3.65066e-3 i9 * i12 + 4.63422e-3 i9 * i13 + 2.60888e-3 i9 * i14 + 3.30432e-3 i9 * i15 + 9.50274e-4 i9 * i16 
  + 3.09664e-3 i9 * i17 + 3.25462e-3 i9 * i18 + 4.94078e-3 i9 * i19 + 3.39202e-3 i9 * i20 + 2.83784e-3 i9 * i21 
  + 1.862472e-3 i9 * i22 + 1.457294e-3 i9 * i23 + 2.92408e-4 i9 * i24 + 4.34258e-3 i9 * i25 + 5.1917e-3 i9 * i26 
  + 4.42724e-3 i9 * i27 + 2.35362e-3 i9 * i28 + 2.3207e-3 i9 * i29 + 2.32972e-3 i9 * i30 + 6.68969e-3 i10^2 
  + 6.61128e-3 i10 * i11 + 9.9349e-3 i10 * i12 + 6.70728e-3 i10 * i13 + 6.88756e-3 i10 * i14 + 8.14804e-3 i10 * i15 
  + 3.87536e-3 i10 * i16 + 1.709622e-2 i10 * i17 + 9.21546e-3 i10 * i18 + 1.138012e-2 i10 * i19 + 7.3598e-3 i10 * i20 
  + 1.2047e-2 i10 * i21 + 1.953884e-3 i10 * i22 + 1.110682e-2 i10 * i23 + 7.44232e-3 i10 * i24 + 8.46572e-3 i10 * i25 
  + 8.11902e-3 i10 * i26 + 1.093528e-2 i10 * i27 + 6.42736e-3 i10 * i28 + 8.17838e-3 i10 * i29 + 4.67066e-3 i10 * i30 
  + 6.13034e-3 i11^2 + 1.089978e-2 i11 * i12 + 5.80646e-3 i11 * i13 + 4.79126e-3 i11 * i14 + 6.55088e-3 i11 * i15 
  + 7.84072e-3 i11 * i16 + 1.71429e-2 i11 * i17 + 9.9023e-3 i11 * i18 + 8.81158e-3 i11 * i19 + 6.5332e-3 i11 * i20 
  + 1.111462e-2 i11 * i21 + 2.38226e-3 i11 * i22 + 9.42038e-3 i11 * i23 + 5.09366e-3 i11 * i24 + 7.9177e-3 i11 * i25 
  + 6.53764e-3 i11 * i26 + 9.63386e-3 i11 * i27 + 5.18254e-3 i11 * i28 + 8.39924e-3 i11 * i29 + 3.96162e-3 i11 * i30 
  + 1.29271e-2 i12^2 + 8.12884e-3 i12 * i13 + 9.32748e-3 i12 * i14 + 1.172114e-2 i12 * i15 + 9.37084e-3 i12 * i16 
  + 3.3621e-2 i12 * i17 + 1.25625e-2 i12 * i18 + 1.635358e-2 i12 * i19 + 1.460644e-2 i12 * i20 + 1.374474e-2 i12 * i21 
  + 5.26496e-3 i12 * i22 + 1.402198e-2 i12 * i23 + 9.31776e-3 i12 * i24 + 1.195866e-2 i12 * i25 + 8.22682e-3 i12 * i26 
  + 1.241788e-2 i12 * i27 + 7.06034e-3 i12 * i28 + 1.219462e-2 i12 * i29 + 5.98988e-3 i12 * i30 + 6.97595e-3 i13^2 
  + 6.8538e-3 i13 * i14 + 6.20178e-3 i13 * i15 + 3.79406e-3 i13 * i16 + 8.89862e-3 i13 * i17 + 8.16594e-3 i13 * i18 
  + 1.033824e-2 i13 * i19 + 5.77162e-3 i13 * i20 + 7.36548e-3 i13 * i21 + 4.10776e-3 i13 * i22 + 5.80558e-3 i13 * i23 
  + 4.59074e-3 i13 * i24 + 7.2167e-3 i13 * i25 + 9.56086e-3 i13 * i26 + 9.43468e-3 i13 * i27 + 5.87164e-3 i13 * i28 
  + 9.02842e-3 i13 * i29 + 5.50608e-3 i13 * i30 + 1.04282e-2 i14^2 + 6.35356e-3 i14 * i15 + 7.09628e-3 i14 * i16 
  + 1.555038e-2 i14 * i17 + 8.26722e-3 i14 * i18 + 7.51614e-3 i14 * i19 + 8.14342e-3 i14 * i20 + 9.95652e-3 i14 * i21 
  + 4.77798e-3 i14 * i22 + 7.6843e-3 i14 * i23 + 8.17698e-3 i14 * i24 + 8.86056e-3 i14 * i25 + 5.79636e-3 i14 * i26 
  + 1.128084e-2 i14 * i27 + 4.83444e-3 i14 * i28 + 6.8342e-3 i14 * i29 + 7.7372e-3 i14 * i30 + 8.99168e-3 i15^2 
  + 9.73548e-3 i15 * i16 + 1.556958e-2 i15 * i17 + 9.26266e-3 i15 * i18 + 1.281188e-2 i15 * i19 + 6.69072e-3 i15 * i20 
  + 9.37684e-3 i15 * i21 + 6.39856e-3 i15 * i22 + 6.11934e-3 i15 * i23 + 8.53942e-3 i15 * i24 + 9.64296e-3 i15 * i25 
  + 7.04584e-3 i15 * i26 + 1.19279e-2 i15 * i27 + 6.48174e-3 i15 * i28 + 1.050128e-2 i15 * i29 + 5.02696e-3 i15 * i30 
  + 2.06685e-2 i16^2 + 1.809222e-2 i16 * i17 + 8.23288e-3 i16 * i18 + 1.161214e-2 i16 * i19 + 5.33676e-3 i16 * i20 
  + 1.233794e-2 i16 * i21 + 5.12778e-3 i16 * i22 + 7.22276e-3 i16 * i23 + 1.715638e-2 i16 * i24 + 6.77738e-3 i16 * i25 
  + 6.9565e-3 i16 * i26 + 1.691522e-2 i16 * i27 + 2.46824e-3 i16 * i28 + 9.34088e-3 i16 * i29 + 3.93866e-3 i16 * i30 
  + 4.88863e-2 i17^2 + 1.858542e-2 i17 * i18 + 2.24912e-2 i17 * i19 + 1.793624e-2 i17 * i20 + 2.70204e-2 i17 * i21 
  + 1.083832e-2 i17 * i22 + 2.16678e-2 i17 * i23 + 1.83347e-2 i17 * i24 + 1.893e-2 i17 * i25 + 1.089098e-2 i17 * i26 
  + 2.09142e-2 i17 * i27 + 1.273162e-2 i17 * i28 + 2.00902e-2 i17 * i29 + 7.74366e-3 i17 * i30 + 8.94867e-3 i18^2 
  + 1.171594e-2 i18 * i19 + 8.61454e-3 i18 * i20 + 1.414322e-2 i18 * i21 + 1.961404e-3 i18 * i22 + 9.10214e-3 i18 * i23 
  + 1.003468e-2 i18 * i24 + 9.4743e-3 i18 * i25 + 8.25794e-3 i18 * i26 + 1.336058e-2 i18 * i27 + 6.07998e-3 i18 * i28 
  + 1.070732e-2 i18 * i29 + 4.92858e-3 i18 * i30 + 1.24118e-2 i19^2 + 8.2848e-3 i19 * i20 + 1.26004e-2 i19 * i21 
  + 4.07366e-3 i19 * i22 + 1.381284e-2 i19 * i23 + 8.38908e-3 i19 * i24 + 1.198264e-2 i19 * i25 + 1.583126e-2 i19 * i26 
  + 1.664044e-2 i19 * i27 + 9.24324e-3 i19 * i28 + 1.214842e-2 i19 * i29 + 5.92778e-3 i19 * i30 + 1.22291e-2 i20^2 
  + 1.071434e-2 i20 * i21 + 2.96964e-3 i20 * i22 + 7.36528e-3 i20 * i23 + 6.06396e-3 i20 * i24 + 6.28822e-3 i20 * i25 
  + 8.17696e-3 i20 * i26 + 7.76894e-3 i20 * i27 + 2.6202e-3 i20 * i28 + 7.17342e-3 i20 * i29 + 5.79184e-3 i20 * i30 
  + 1.28973e-2 i21^2 + 4.69936e-3 i21 * i22 + 1.38599e-2 i21 * i23 + 1.25037e-2 i21 * i24 + 1.211002e-2 i21 * i25 
  + 8.36436e-3 i21 * i26 + 1.6494e-2 i21 * i27 + 6.02872e-3 i21 * i28 + 1.180462e-2 i21 * i29 + 5.70478e-3 i21 * i30 
  + 6.68043e-3 i22^2 + 3.2176e-3 i22 * i23 + 3.79112e-3 i22 * i24 + 3.01976e-3 i22 * i25 + 3.08424e-3 i22 * i26 
  + 3.69962e-3 i22 * i27 + 2.78784e-3 i22 * i28 + 4.65846e-3 i22 * i29 + 2.97212e-3 i22 * i30 + 1.53425e-2 i23^2 
  + 1.019176e-2 i23 * i24 + 7.79098e-3 i23 * i25 + 5.77776e-3 i23 * i26 + 1.267514e-2 i23 * i27 + 7.35432e-3 i23 * i28 
  + 7.86386e-3 i23 * i29 + 5.59972e-3 i23 * i30 + 1.28605e-2 i24^2 + 7.25022e-3 i24 * i25 + 4.55648e-3 i24 * i26 
  + 1.57223e-2 i24 * i27 + 5.79512e-3 i24 * i28 + 7.92398e-3 i24 * i29 + 4.5755e-3 i24 * i30 + 7.18697e-3 i25^2 
  + 7.23442e-3 i25 * i26 + 1.196012e-2 i25 * i27 + 6.3273e-3 i25 * i28 + 9.9815e-3 i25 * i29 + 4.1794e-3 i25 * i30 
  + 1.02616e-2 i26^2 + 1.139894e-2 i26 * i27 + 8.0092e-3 i26 * i28 + 8.0044e-3 i26 * i29 + 4.93602e-3 i26 * i30 
  + 1.23235e-2 i27^2 + 8.26208e-3 i27 * i28 + 1.246152e-2 i27 * i29 + 6.7556e-3 i27 * i30 + 5.69465e-3 i28^2 
  + 5.75648e-3 i28 * i29 + 4.4929e-3 i28 * i30 + 8.18114e-3 i29^2 + 4.69952e-3 i29 * i30 + 4.69456e-3 i30^2 
  ] <= 0
 e2: 3.18236e-3 i1 - 1.5175e-4 i2 - 6.95114e-3 i3 + 1.2626e-2 i4 + 9.4202e-3 i5 + 5.96825e-3 i6 + 3.54677e-3 i7 
  - 1.34318e-3 i8 - 6.70481e-3 i9 - 1.23195e-3 i10 - 5.1299e-4 i11 - 3.48068e-3 i12 + 4.86372e-3 i13 
  - 1.02346e-2 i14 - 2.11219e-3 i15 + 4.57072e-3 i16 - 8.28342e-3 i17 - 1.68175e-3 i18 - 5.31856e-3 i19 
  - 1.11388e-3 i20 + 1.42599e-2 i21 + 5.45572e-3 i22 + 7.7442e-3 i23 + 1.95808e-2 i24 + 2.60132e-3 i25 
  - 5.24596e-3 i26 + 3.06e-3 i27 + 3.29918e-3 i28 + 2.65023e-3 i29 + 4.5383e-3 i30 >= 0
 e3: 39.19 i1 + 41.47 i2 + 5.71 i3 + 53.59 i4 + 43.65 i5 + 85.46 i6 + 39.7 i7 + 44.91 i8 + 9.6 i9 + 11.26 i10 
  + 39.56 i11 + 46 i12 + 45.25 i13 + 21.9 i14 + 11.85 i15 + 37.4 i16 + 4.75 i17 + 44.44 i18 + 80.5 i19 
  + 49.46 i20 + 67.02 i21 + 59.25 i22 + 71.5 i23 + 48.8 i24 + 73.22 i25 + 101.9 i26 + 20.06 i27 + 36.33 i28 
  + 41.31 i29 + 53.09 i30 >= 2e3
 e4: 39.19 i1 + 41.47 i2 + 5.71 i3 + 53.59 i4 + 43.65 i5 + 85.46 i6 + 39.7 i7 + 44.91 i8 + 9.6 i9 + 11.26 i10 
  + 39.56 i11 + 46 i12 + 45.25 i13 + 21.9 i14 + 11.85 i15 + 37.4 i16 + 4.75 i17 + 44.44 i18 + 80.5 i19 
  + 49.46 i20 + 67.02 i21 + 59.25 i22 + 71.5 i23 + 48.8 i24 + 73.22 i25 + 101.9 i26 + 20.06 i27 + 36.33 i28 
  + 41.31 i29 + 53.09 i30 <= 2.2e3

Bounds
 objvar Free

General
 i1 i2 i3 i4 i5 i6 i7 i8 i9 i10 i11 i12 i13 i14 i15 i16 i17 i18 i19 i20 i21 i22 i23 i24 i25
 i26 i27 i28 i29 i30

End
